(set-logic QF_LIA)
(set-info :source |http://www.nec-labs.com/~fsoft/bench.html
 The following changes have been made:
 The logic is changed to QF_LIA.
 The category is set as industrial.
 The status (except 'large' cases) is assigned according to the 'outfile' on http://www.nec-labs.com/~fsoft/bench.html.  |)
(set-info :smt-lib-version 2.0)
(set-info :category "industrial")
(set-info :status sat)
(declare-fun i194 () Int)
(declare-fun i201 () Int)
(declare-fun i224 () Int)
(declare-fun i214 () Int)
(declare-fun i245 () Int)
(declare-fun i270 () Int)
(declare-fun i300 () Int)
(declare-fun i342 () Int)
(declare-fun i399 () Int)
(declare-fun i481 () Int)
(declare-fun i527 () Int)
(declare-fun i578 () Int)
(declare-fun i641 () Int)
(declare-fun i762 () Int)
(declare-fun i890 () Int)
(declare-fun i826 () Int)
(declare-fun i1022 () Int)
(declare-fun i960 () Int)
(declare-fun i1154 () Int)
(declare-fun i1091 () Int)
(assert (let ((?v_3 (+ 0 0))) (let ((?v_74 (= i399 ?v_3)) (?v_149 (= i578 ?v_3))) (let ((?v_151 (ite ?v_149 1 2147483647)) (?v_75 (ite ?v_74 1 2147483647)) (?v_0 (ite (<= i194 ?v_3) 4 12)) (?v_42 (+ 12 0))) (let ((?v_2 (= ?v_0 ?v_42))) (let ((?v_51 (ite (not ?v_2) 0 i201)) (?v_1 (ite ?v_2 14 ?v_0))) (let ((?v_4 (= ?v_51 ?v_3)) (?v_49 (+ 14 0))) (let ((?v_5 (ite (not (= ?v_1 ?v_49)) ?v_1 (ite (not ?v_4) 15 (ite ?v_4 16 ?v_1)))) (?v_68 (+ 16 0))) (let ((?v_13 (= ?v_5 ?v_68)) (?v_67 (+ 15 0))) (let ((?v_12 (= ?v_5 ?v_67))) (let ((?v_137 (ite ?v_12 i214 (ite (not ?v_13) 0 i214))) (?v_6 (ite ?v_12 17 (ite ?v_13 17 ?v_5))) (?v_78 (+ 17 0))) (let ((?v_8 (= ?v_6 ?v_78))) (let ((?v_91 (ite (not ?v_8) 0 i224)) (?v_7 (ite ?v_8 19 ?v_6))) (let ((?v_9 (= ?v_91 ?v_3)) (?v_89 (+ 19 0))) (let ((?v_10 (ite (not (= ?v_7 ?v_89)) ?v_7 (ite (not ?v_9) 20 (ite ?v_9 21 ?v_7)))) (?v_109 (+ 21 0))) (let ((?v_15 (= ?v_10 ?v_109)) (?v_107 (+ 20 0))) (let ((?v_14 (= ?v_10 ?v_107))) (let ((?v_140 (ite ?v_14 i245 (ite (not ?v_15) 0 i245))) (?v_11 (ite ?v_14 23 (ite ?v_15 23 ?v_10)))) (let ((?v_16 (<= ?v_137 (+ ?v_140 0))) (?v_134 (+ 23 0))) (let ((?v_17 (ite (not (= ?v_11 ?v_134)) ?v_11 (ite (not ?v_16) 24 (ite ?v_16 56 ?v_11)))) (?v_31 (+ 56 0))) (let ((?v_21 (= ?v_17 ?v_31)) (?v_170 (+ 24 0))) (let ((?v_18 (= ?v_17 ?v_170))) (let ((?v_189 (ite (not ?v_18) 0 i270)) (?v_35 (ite (not ?v_21) 0 i270))) (let ((?v_19 (= ?v_189 ?v_3)) (?v_22 (= ?v_35 ?v_3)) (?v_20 (ite ?v_18 26 (ite ?v_21 58 ?v_17))) (?v_33 (+ 58 0)) (?v_187 (+ 26 0))) (let ((?v_23 (ite (= ?v_20 ?v_187) (ite (not ?v_19) 27 (ite ?v_19 28 ?v_20)) (ite (not (= ?v_20 ?v_33)) ?v_20 (ite (not ?v_22) 59 (ite ?v_22 60 ?v_20))))) (?v_45 (+ 60 0))) (let ((?v_29 (= ?v_23 ?v_45)) (?v_44 (+ 59 0))) (let ((?v_28 (= ?v_23 ?v_44)) (?v_206 (+ 28 0))) (let ((?v_25 (= ?v_23 ?v_206)) (?v_204 (+ 27 0))) (let ((?v_24 (= ?v_23 ?v_204))) (let ((?v_227 (ite ?v_24 i300 (ite (not ?v_25) 0 i300))) (?v_57 (ite ?v_28 i300 (ite (not ?v_29) 0 i300)))) (let ((?v_26 (<= ?v_227 ?v_3)) (?v_30 (<= ?v_57 ?v_3)) (?v_27 (ite ?v_24 30 (ite ?v_25 30 (ite ?v_28 62 (ite ?v_29 62 ?v_23))))) (?v_54 (+ 62 0)) (?v_224 (+ 30 0))) (let ((?v_32 (ite (= ?v_27 ?v_224) (ite ?v_26 56 (ite (not ?v_26) 46 ?v_27)) (ite (not (= ?v_27 ?v_54)) ?v_27 (ite (not ?v_30) 63 (ite ?v_30 69 ?v_27))))) (?v_251 (+ 46 0))) (let ((?v_41 (= ?v_32 ?v_251)) (?v_70 (+ 69 0))) (let ((?v_40 (= ?v_32 ?v_70)) (?v_69 (+ 63 0))) (let ((?v_38 (= ?v_32 ?v_69)) (?v_34 (= ?v_32 ?v_31))) (let ((?v_193 (ite (not ?v_34) ?v_35 i342)) (?v_82 (ite (not ?v_38) 0 i342))) (let ((?v_36 (= ?v_193 ?v_3)) (?v_39 (= ?v_82 ?v_3)) (?v_47 (ite ?v_40 9 (ite (not ?v_41) 0 i342))) (?v_37 (ite ?v_34 58 (ite ?v_38 65 (ite ?v_40 74 (ite ?v_41 48 ?v_32))))) (?v_278 (+ 48 0)) (?v_84 (+ 74 0))) (let ((?v_46 (= ?v_37 ?v_84)) (?v_80 (+ 65 0))) (let ((?v_64 (ite (not ?v_46) 0 ?v_47))) (let ((?v_65 (<= 9 (+ ?v_64 0))) (?v_99 (+ 264 0))) (let ((?v_48 (<= ?v_64 ?v_99)) (?v_43 (ite (= ?v_37 ?v_33) (ite (not ?v_36) 59 (ite ?v_36 60 ?v_37)) (ite (= ?v_37 ?v_80) (ite (not ?v_39) 66 (ite ?v_39 67 ?v_37)) (ite ?v_46 97 (ite (not (= ?v_37 ?v_278)) ?v_37 (ite (not (<= ?v_47 ?v_3)) 12 ?v_37)))))) (?v_96 (+ 97 0)) (?v_95 (+ 67 0))) (let ((?v_60 (= ?v_43 ?v_95)) (?v_94 (+ 66 0))) (let ((?v_59 (= ?v_43 ?v_94)) (?v_56 (= ?v_43 ?v_45)) (?v_55 (= ?v_43 ?v_44)) (?v_50 (= ?v_43 ?v_42))) (let ((?v_310 (ite (not ?v_50) ?v_51 i399)) (?v_61 (not ?v_60))) (let ((?v_52 (= ?v_310 ?v_3)) (?v_232 (ite ?v_55 i399 (ite (not ?v_56) ?v_57 i399))) (?v_76 (ite ?v_59 i399 (ite ?v_61 0 i399))) (?v_150 (ite ?v_59 ?v_75 (ite ?v_61 0 ?v_75)))) (let ((?v_58 (<= ?v_232 ?v_3)) (?v_77 (<= ?v_150 (+ ?v_76 0))) (?v_53 (ite ?v_50 14 (ite ?v_55 62 (ite ?v_56 62 (ite ?v_59 93 (ite ?v_60 93 (ite (not (= ?v_43 ?v_96)) ?v_43 (ite (not ?v_48) 98 (ite ?v_48 95 ?v_43))))))))) (?v_71 (+ 95 0)) (?v_122 (+ 98 0)) (?v_115 (+ 93 0)) (?v_72 (not ?v_65)) (?v_88 (+ 76 0)) (?v_87 (+ 96 0)) (?v_85 (+ 91 0)) (?v_159 (+ 11 0)) (?v_158 (+ 10 0)) (?v_157 (+ 9 0)) (?v_156 (+ 8 0)) (?v_132 (+ 94 0))) (let ((?v_86 (not ?v_77)) (?v_103 (+ 82 0)) (?v_102 (+ 77 0)) (?v_101 (+ 92 0)) (?v_125 (+ 101 0)) (?v_166 (+ 99 0)) (?v_165 (+ 102 0)) (?v_181 (+ 32 0)) (?v_185 (+ 79 0)) (?v_184 (+ 100 0)) (?v_62 (ite ?v_74 0 (- 2147483647)))) (let ((?v_119 (ite ?v_59 ?v_62 (ite ?v_61 0 ?v_62)))) (let ((?v_63 (<= ?v_76 (+ ?v_119 0)))) (let ((?v_66 (ite (= ?v_53 ?v_49) (ite (not ?v_52) 15 (ite ?v_52 16 ?v_53)) (ite (= ?v_53 ?v_54) (ite (not ?v_58) 63 (ite ?v_58 69 ?v_53)) (ite (= ?v_53 ?v_115) (ite (not ?v_63) 94 (ite ?v_63 91 ?v_53)) (ite (= ?v_53 ?v_122) 95 (ite (not (= ?v_53 ?v_71)) ?v_53 (ite ?v_72 96 (ite ?v_65 76 ?v_53))))))))) (let ((?v_73 (= ?v_66 ?v_132)) (?v_135 (= ?v_66 ?v_67)) (?v_136 (= ?v_66 ?v_68)) (?v_81 (= ?v_66 ?v_69)) (?v_98 (= ?v_66 ?v_70))) (let ((?v_79 (ite ?v_135 17 (ite ?v_136 17 (ite ?v_81 65 (ite ?v_98 74 (ite (= ?v_66 ?v_71) (ite ?v_72 96 (ite ?v_65 76 ?v_66)) (ite ?v_73 91 (ite (= ?v_66 ?v_85) (ite ?v_86 92 (ite ?v_77 69 ?v_66)) (ite (= ?v_66 ?v_87) 76 (ite (= ?v_66 ?v_88) 77 ?v_66))))))))))) (let ((?v_90 (= ?v_79 ?v_78)) (?v_111 (= ?v_79 ?v_70)) (?v_273 (ite (not ?v_81) ?v_82 i481))) (let ((?v_83 (= ?v_273 ?v_3)) (?v_97 (= ?v_79 ?v_84)) (?v_104 (= ?v_79 ?v_102)) (?v_112 (= ?v_79 ?v_103))) (let ((?v_93 (ite ?v_90 19 (ite ?v_111 74 (ite (= ?v_79 ?v_80) (ite (not ?v_83) 66 (ite ?v_83 67 ?v_79)) (ite ?v_97 97 (ite (= ?v_79 ?v_85) (ite ?v_86 92 (ite ?v_77 69 ?v_79)) (ite (= ?v_79 ?v_87) 76 (ite (= ?v_79 ?v_88) 77 (ite (= ?v_79 ?v_101) 69 (ite ?v_104 101 (ite ?v_112 74 ?v_79))))))))))) (?v_92 (= (ite (not ?v_90) ?v_91 i527) ?v_3))) (let ((?v_143 (= ?v_93 ?v_70)) (?v_110 (= ?v_93 ?v_84)) (?v_116 (= ?v_93 ?v_94)) (?v_117 (= ?v_93 ?v_95)) (?v_105 (ite ?v_98 9 ?v_47))) (let ((?v_113 (ite (not ?v_97) ?v_64 ?v_105))) (let ((?v_100 (<= ?v_113 ?v_99)) (?v_126 (= ?v_93 ?v_102)) (?v_144 (= ?v_93 ?v_103)) (?v_128 (ite (not ?v_104) 0 ?v_105))) (let ((?v_106 (<= ?v_128 ?v_99))) (let ((?v_108 (ite (= ?v_93 ?v_89) (ite (not ?v_92) 20 (ite ?v_92 21 ?v_93)) (ite ?v_143 74 (ite ?v_110 97 (ite ?v_116 93 (ite ?v_117 93 (ite (= ?v_93 ?v_96) (ite (not ?v_100) 98 (ite ?v_100 95 ?v_93)) (ite (= ?v_93 ?v_88) 77 (ite (= ?v_93 ?v_101) 69 (ite ?v_126 101 (ite ?v_144 74 (ite (not (= ?v_93 ?v_125)) ?v_93 (ite (not ?v_106) 102 (ite ?v_106 99 ?v_93))))))))))))))) (let ((?v_138 (= ?v_108 ?v_107)) (?v_139 (= ?v_108 ?v_109)) (?v_173 (= ?v_108 ?v_70)) (?v_142 (= ?v_108 ?v_84)) (?v_155 (not ?v_112)) (?v_118 (not ?v_117))) (let ((?v_152 (ite ?v_116 i578 (ite ?v_118 ?v_76 i578))) (?v_120 (ite ?v_149 0 (- 2147483647)))) (let ((?v_323 (ite ?v_116 ?v_120 (ite ?v_118 ?v_119 ?v_120)))) (let ((?v_121 (<= ?v_152 (+ ?v_323 0))) (?v_162 (= ?v_108 ?v_102)) (?v_174 (= ?v_108 ?v_103)) (?v_141 (<= (ite ?v_135 i481 (ite (not ?v_136) ?v_137 i481)) (+ (ite ?v_138 i641 (ite (not ?v_139) ?v_140 i641)) 0))) (?v_154 (not ?v_144)) (?v_153 (<= (ite ?v_116 ?v_151 (ite ?v_118 ?v_150 ?v_151)) (+ ?v_152 0)))) (let ((?v_178 (not ?v_153)) (?v_160 (ite ?v_111 0 (ite ?v_155 0 (ite (= ?v_105 ?v_156) 0 (ite (= ?v_105 ?v_157) 0 (ite (= ?v_105 ?v_158) 0 (ite (= ?v_105 ?v_159) 0 i527))))))) (?v_179 (not ?v_174)) (?v_324 (ite (= i1154 ?v_3) 0 (- 2147483647))) (?v_127 (ite ?v_111 9 (ite ?v_155 ?v_105 (+ 0 1 ?v_105))))) (let ((?v_123 (ite ?v_110 ?v_127 ?v_113))) (let ((?v_114 (<= ?v_123 ?v_99)) (?v_124 (<= 9 (+ ?v_123 0))) (?v_130 (ite ?v_126 ?v_127 ?v_128))) (let ((?v_129 (<= ?v_130 ?v_99)) (?v_131 (<= 9 (+ ?v_130 0)))) (let ((?v_133 (ite ?v_138 23 (ite ?v_139 23 (ite ?v_173 74 (ite ?v_142 97 (ite (= ?v_108 ?v_96) (ite (not ?v_114) 98 (ite ?v_114 95 ?v_108)) (ite (= ?v_108 ?v_115) (ite (not ?v_121) 94 (ite ?v_121 91 ?v_108)) (ite (= ?v_108 ?v_122) 95 (ite (= ?v_108 ?v_71) (ite (not ?v_124) 96 (ite ?v_124 76 ?v_108)) (ite ?v_162 101 (ite ?v_174 74 (ite (= ?v_108 ?v_125) (ite (not ?v_129) 102 (ite ?v_129 99 ?v_108)) (ite (= ?v_108 ?v_165) 99 (ite (not (= ?v_108 ?v_166)) ?v_108 (ite (not ?v_131) 100 (ite ?v_131 79 ?v_108))))))))))))))))) (let ((?v_148 (= ?v_133 ?v_132)) (?v_172 (= ?v_133 ?v_84)) (?v_163 (ite ?v_143 9 (ite ?v_154 ?v_127 (+ 0 1 ?v_127))))) (let ((?v_146 (ite ?v_142 ?v_163 ?v_123))) (let ((?v_145 (<= ?v_146 ?v_99)) (?v_147 (<= 9 (+ ?v_146 0))) (?v_169 (ite ?v_143 0 (ite ?v_154 ?v_160 (ite (= ?v_127 ?v_156) 0 (ite (= ?v_127 ?v_157) 0 (ite (= ?v_127 ?v_158) 0 (ite (= ?v_127 ?v_159) 0 i578)))))))) (let ((?v_180 (ite ?v_142 ?v_169 (ite (not ?v_110) 0 ?v_160)))) (let ((?v_161 (= ?v_180 ?v_181)) (?v_167 (ite ?v_162 ?v_163 ?v_130))) (let ((?v_164 (<= ?v_167 ?v_99)) (?v_168 (<= 9 (+ ?v_167 0)))) (let ((?v_183 (not ?v_168)) (?v_202 (ite (not ?v_162) (ite (not ?v_126) 0 ?v_160) ?v_169))) (let ((?v_186 (= ?v_202 ?v_157))) (let ((?v_171 (ite (= ?v_133 ?v_134) (ite (not ?v_141) 24 (ite ?v_141 56 ?v_133)) (ite ?v_172 97 (ite (= ?v_133 ?v_96) (ite (not ?v_145) 98 (ite ?v_145 95 ?v_133)) (ite (= ?v_133 ?v_122) 95 (ite (= ?v_133 ?v_71) (ite (not ?v_147) 96 (ite ?v_147 76 ?v_133)) (ite ?v_148 91 (ite (= ?v_133 ?v_85) (ite ?v_178 92 (ite ?v_153 69 ?v_133)) (ite (= ?v_133 ?v_87) 76 (ite (= ?v_133 ?v_88) (ite (not ?v_161) 77 (ite ?v_161 82 ?v_133)) (ite (= ?v_133 ?v_125) (ite (not ?v_164) 102 (ite ?v_164 99 ?v_133)) (ite (= ?v_133 ?v_165) 99 (ite (= ?v_133 ?v_166) (ite ?v_183 100 (ite ?v_168 79 ?v_133)) (ite (= ?v_133 ?v_184) 79 (ite (not (= ?v_133 ?v_185)) ?v_133 (ite ?v_186 82 ?v_133))))))))))))))))) (let ((?v_188 (= ?v_171 ?v_170)) (?v_192 (= ?v_171 ?v_31)) (?v_208 (= ?v_171 ?v_70)) (?v_198 (ite ?v_173 9 (ite ?v_179 ?v_163 (+ 0 1 ?v_163))))) (let ((?v_176 (ite ?v_172 ?v_198 ?v_146))) (let ((?v_175 (<= ?v_176 ?v_99)) (?v_177 (<= 9 (+ ?v_176 0)))) (let ((?v_195 (not ?v_177)) (?v_203 (ite ?v_173 0 (ite ?v_179 ?v_169 (ite (= ?v_163 ?v_156) 0 (ite (= ?v_163 ?v_157) 0 (ite (= ?v_163 ?v_158) 0 (ite (= ?v_163 ?v_159) 0 i641)))))))) (let ((?v_214 (ite ?v_172 ?v_203 ?v_180))) (let ((?v_182 (= ?v_214 ?v_181))) (let ((?v_196 (not ?v_182)) (?v_197 (= ?v_171 ?v_102)) (?v_209 (= ?v_171 ?v_103))) (let ((?v_191 (ite ?v_188 26 (ite ?v_192 58 (ite ?v_208 74 (ite (= ?v_171 ?v_96) (ite (not ?v_175) 98 (ite ?v_175 95 ?v_171)) (ite (= ?v_171 ?v_122) 95 (ite (= ?v_171 ?v_71) (ite ?v_195 96 (ite ?v_177 76 ?v_171)) (ite (= ?v_171 ?v_85) (ite ?v_178 92 (ite ?v_153 69 ?v_171)) (ite (= ?v_171 ?v_87) 76 (ite (= ?v_171 ?v_88) (ite ?v_196 77 (ite ?v_182 82 ?v_171)) (ite (= ?v_171 ?v_101) 69 (ite ?v_197 101 (ite ?v_209 74 (ite (= ?v_171 ?v_165) 99 (ite (= ?v_171 ?v_166) (ite ?v_183 100 (ite ?v_168 79 ?v_171)) (ite (= ?v_171 ?v_184) 79 (ite (not (= ?v_171 ?v_185)) ?v_171 (ite ?v_186 82 ?v_171)))))))))))))))))) (?v_190 (= (ite (not ?v_188) ?v_189 i762) ?v_3)) (?v_269 (ite (not ?v_192) ?v_193 i762))) (let ((?v_194 (= ?v_269 ?v_3)) (?v_235 (= ?v_191 ?v_70)) (?v_207 (= ?v_191 ?v_84)) (?v_217 (= ?v_191 ?v_102)) (?v_236 (= ?v_191 ?v_103)) (?v_200 (ite ?v_197 ?v_198 ?v_167))) (let ((?v_199 (<= ?v_200 ?v_99)) (?v_201 (<= 9 (+ ?v_200 0))) (?v_222 (ite (not ?v_197) ?v_202 ?v_203))) (let ((?v_205 (ite (= ?v_191 ?v_187) (ite (not ?v_190) 27 (ite ?v_190 28 ?v_191)) (ite (= ?v_191 ?v_33) (ite (not ?v_194) 59 (ite ?v_194 60 ?v_191)) (ite ?v_235 74 (ite ?v_207 97 (ite (= ?v_191 ?v_122) 95 (ite (= ?v_191 ?v_71) (ite ?v_195 96 (ite ?v_177 76 ?v_191)) (ite (= ?v_191 ?v_87) 76 (ite (= ?v_191 ?v_88) (ite ?v_196 77 (ite ?v_182 82 ?v_191)) (ite (= ?v_191 ?v_101) 69 (ite ?v_217 101 (ite ?v_236 74 (ite (= ?v_191 ?v_125) (ite (not ?v_199) 102 (ite ?v_199 99 ?v_191)) (ite (= ?v_191 ?v_166) (ite (not ?v_201) 100 (ite ?v_201 79 ?v_191)) (ite (= ?v_191 ?v_184) 79 (ite (not (= ?v_191 ?v_185)) ?v_191 (ite (= ?v_222 ?v_157) 82 ?v_191)))))))))))))))))) (let ((?v_225 (= ?v_205 ?v_204)) (?v_226 (= ?v_205 ?v_206)) (?v_230 (= ?v_205 ?v_44)) (?v_231 (= ?v_205 ?v_45)) (?v_253 (= ?v_205 ?v_70)) (?v_234 (= ?v_205 ?v_84)) (?v_213 (not ?v_207)) (?v_215 (not ?v_209))) (let ((?v_218 (ite ?v_208 9 (ite ?v_215 ?v_198 (+ 0 1 ?v_198))))) (let ((?v_211 (ite ?v_213 ?v_176 ?v_218))) (let ((?v_210 (<= ?v_211 ?v_99)) (?v_212 (<= 9 (+ ?v_211 0))) (?v_223 (ite ?v_208 0 (ite ?v_215 ?v_203 (ite (= ?v_198 ?v_156) 0 (ite (= ?v_198 ?v_157) 0 (ite (= ?v_198 ?v_158) 0 (ite (= ?v_198 ?v_159) 0 i762)))))))) (let ((?v_241 (ite ?v_213 ?v_214 ?v_223))) (let ((?v_216 (= ?v_241 ?v_181)) (?v_243 (= ?v_205 ?v_102)) (?v_254 (= ?v_205 ?v_103)) (?v_220 (ite ?v_217 ?v_218 ?v_200))) (let ((?v_219 (<= ?v_220 ?v_99)) (?v_221 (<= 9 (+ ?v_220 0))) (?v_248 (ite (not ?v_217) ?v_222 ?v_223))) (let ((?v_229 (ite ?v_225 30 (ite ?v_226 30 (ite ?v_230 62 (ite ?v_231 62 (ite ?v_253 74 (ite ?v_234 97 (ite (= ?v_205 ?v_96) (ite (not ?v_210) 98 (ite ?v_210 95 ?v_205)) (ite (= ?v_205 ?v_71) (ite (not ?v_212) 96 (ite ?v_212 76 ?v_205)) (ite (= ?v_205 ?v_87) 76 (ite (= ?v_205 ?v_88) (ite (not ?v_216) 77 (ite ?v_216 82 ?v_205)) (ite ?v_243 101 (ite ?v_254 74 (ite (= ?v_205 ?v_125) (ite (not ?v_219) 102 (ite ?v_219 99 ?v_205)) (ite (= ?v_205 ?v_165) 99 (ite (= ?v_205 ?v_166) (ite (not ?v_221) 100 (ite ?v_221 79 ?v_205)) (ite (= ?v_205 ?v_184) 79 (ite (not (= ?v_205 ?v_185)) ?v_205 (ite (= ?v_248 ?v_157) 82 ?v_205))))))))))))))))))) (?v_228 (<= (ite ?v_225 i890 (ite (not ?v_226) ?v_227 i890)) ?v_3)) (?v_315 (ite ?v_230 i890 (ite (not ?v_231) ?v_232 i890)))) (let ((?v_233 (<= ?v_315 ?v_3)) (?v_252 (= ?v_229 ?v_84)) (?v_240 (not ?v_236))) (let ((?v_244 (ite ?v_235 9 (ite ?v_240 ?v_218 (+ 0 1 ?v_218))))) (let ((?v_238 (ite ?v_234 ?v_244 ?v_211))) (let ((?v_237 (<= ?v_238 ?v_99)) (?v_239 (<= 9 (+ ?v_238 0))) (?v_249 (ite ?v_235 0 (ite ?v_240 ?v_223 (ite (= ?v_218 ?v_156) 0 (ite (= ?v_218 ?v_157) 0 (ite (= ?v_218 ?v_158) 0 (ite (= ?v_218 ?v_159) 0 i826)))))))) (let ((?v_259 (ite ?v_234 ?v_249 ?v_241))) (let ((?v_242 (= ?v_259 ?v_181)) (?v_261 (= ?v_229 ?v_102)) (?v_276 (= ?v_229 ?v_103)) (?v_246 (ite ?v_243 ?v_244 ?v_220))) (let ((?v_245 (<= ?v_246 ?v_99)) (?v_247 (<= 9 (+ ?v_246 0))) (?v_266 (ite (not ?v_243) ?v_248 ?v_249))) (let ((?v_250 (ite (= ?v_229 ?v_224) (ite ?v_228 56 (ite (not ?v_228) 46 ?v_229)) (ite (= ?v_229 ?v_54) (ite (not ?v_233) 63 (ite ?v_233 69 ?v_229)) (ite ?v_252 97 (ite (= ?v_229 ?v_96) (ite (not ?v_237) 98 (ite ?v_237 95 ?v_229)) (ite (= ?v_229 ?v_122) 95 (ite (= ?v_229 ?v_71) (ite (not ?v_239) 96 (ite ?v_239 76 ?v_229)) (ite (= ?v_229 ?v_87) 76 (ite (= ?v_229 ?v_88) (ite (not ?v_242) 77 (ite ?v_242 82 ?v_229)) (ite ?v_261 101 (ite ?v_276 74 (ite (= ?v_229 ?v_125) (ite (not ?v_245) 102 (ite ?v_245 99 ?v_229)) (ite (= ?v_229 ?v_165) 99 (ite (= ?v_229 ?v_166) (ite (not ?v_247) 100 (ite ?v_247 79 ?v_229)) (ite (= ?v_229 ?v_184) 79 (ite (not (= ?v_229 ?v_185)) ?v_229 (ite (= ?v_266 ?v_157) 82 ?v_229)))))))))))))))))) (let ((?v_268 (= ?v_250 ?v_31)) (?v_272 (= ?v_250 ?v_69)) (?v_279 (= ?v_250 ?v_70)) (?v_275 (= ?v_250 ?v_84)) (?v_280 (= ?v_250 ?v_251)) (?v_258 (not ?v_254))) (let ((?v_262 (ite ?v_253 9 (ite ?v_258 ?v_244 (+ 0 1 ?v_244))))) (let ((?v_256 (ite ?v_252 ?v_262 ?v_238))) (let ((?v_255 (<= ?v_256 ?v_99)) (?v_257 (<= 9 (+ ?v_256 0))) (?v_267 (ite ?v_253 0 (ite ?v_258 ?v_249 (ite (= ?v_244 ?v_156) 0 (ite (= ?v_244 ?v_157) 0 (ite (= ?v_244 ?v_158) 0 (ite (= ?v_244 ?v_159) 0 i890)))))))) (let ((?v_286 (ite ?v_252 ?v_267 ?v_259))) (let ((?v_260 (= ?v_286 ?v_181)) (?v_288 (= ?v_250 ?v_102)) (?v_281 (= ?v_250 ?v_103)) (?v_264 (ite ?v_261 ?v_262 ?v_246))) (let ((?v_263 (<= ?v_264 ?v_99)) (?v_265 (<= 9 (+ ?v_264 0))) (?v_292 (ite (not ?v_261) ?v_266 ?v_267))) (let ((?v_271 (ite ?v_268 58 (ite ?v_272 65 (ite ?v_279 74 (ite ?v_275 97 (ite ?v_280 48 (ite (= ?v_250 ?v_96) (ite (not ?v_255) 98 (ite ?v_255 95 ?v_250)) (ite (= ?v_250 ?v_122) 95 (ite (= ?v_250 ?v_71) (ite (not ?v_257) 96 (ite ?v_257 76 ?v_250)) (ite (= ?v_250 ?v_87) 76 (ite (= ?v_250 ?v_88) (ite (not ?v_260) 77 (ite ?v_260 82 ?v_250)) (ite ?v_288 101 (ite ?v_281 74 (ite (= ?v_250 ?v_125) (ite (not ?v_263) 102 (ite ?v_263 99 ?v_250)) (ite (= ?v_250 ?v_165) 99 (ite (= ?v_250 ?v_166) (ite (not ?v_265) 100 (ite ?v_265 79 ?v_250)) (ite (= ?v_250 ?v_184) 79 (ite (not (= ?v_250 ?v_185)) ?v_250 (ite (= ?v_292 ?v_157) 82 ?v_250))))))))))))))))))) (?v_270 (= (ite (not ?v_268) ?v_269 i1022) ?v_3)) (?v_274 (= (ite (not ?v_272) ?v_273 i1022) ?v_3))) (let ((?v_295 (= ?v_271 ?v_84)) (?v_285 (not ?v_276))) (let ((?v_282 (ite ?v_285 ?v_262 (+ 0 1 ?v_262)))) (let ((?v_283 (ite ?v_275 ?v_282 ?v_256))) (let ((?v_277 (<= ?v_283 ?v_99)) (?v_300 (not ?v_281))) (let ((?v_296 (ite ?v_279 9 (ite ?v_280 i1022 (ite ?v_300 ?v_282 (+ 0 1 ?v_282))))) (?v_284 (<= 9 (+ ?v_283 0))) (?v_293 (ite ?v_285 ?v_267 (ite (= ?v_262 ?v_156) 0 (ite (= ?v_262 ?v_157) 0 (ite (= ?v_262 ?v_158) 0 (ite (= ?v_262 ?v_159) 0 i960))))))) (let ((?v_301 (ite ?v_275 ?v_293 ?v_286))) (let ((?v_287 (= ?v_301 ?v_181)) (?v_303 (= ?v_271 ?v_102)) (?v_318 (= ?v_271 ?v_103)) (?v_290 (ite ?v_288 ?v_282 ?v_264))) (let ((?v_289 (<= ?v_290 ?v_99)) (?v_291 (<= 9 (+ ?v_290 0))) (?v_307 (ite (not ?v_288) ?v_292 ?v_293))) (let ((?v_294 (ite (= ?v_271 ?v_33) (ite (not ?v_270) 59 (ite ?v_270 60 ?v_271)) (ite (= ?v_271 ?v_80) (ite (not ?v_274) 66 (ite ?v_274 67 ?v_271)) (ite ?v_295 97 (ite (= ?v_271 ?v_96) (ite (not ?v_277) 98 (ite ?v_277 95 ?v_271)) (ite (= ?v_271 ?v_278) (ite (not (<= ?v_296 ?v_3)) 12 ?v_271) (ite (= ?v_271 ?v_122) 95 (ite (= ?v_271 ?v_71) (ite (not ?v_284) 96 (ite ?v_284 76 ?v_271)) (ite (= ?v_271 ?v_87) 76 (ite (= ?v_271 ?v_88) (ite (not ?v_287) 77 (ite ?v_287 82 ?v_271)) (ite ?v_303 101 (ite ?v_318 74 (ite (= ?v_271 ?v_125) (ite (not ?v_289) 102 (ite ?v_289 99 ?v_271)) (ite (= ?v_271 ?v_165) 99 (ite (= ?v_271 ?v_166) (ite (not ?v_291) 100 (ite ?v_291 79 ?v_271)) (ite (= ?v_271 ?v_184) 79 (ite (not (= ?v_271 ?v_185)) ?v_271 (ite (= ?v_307 ?v_157) 82 ?v_271))))))))))))))))))) (let ((?v_309 (= ?v_294 ?v_42)) (?v_313 (= ?v_294 ?v_44)) (?v_314 (= ?v_294 ?v_45)) (?v_317 (= ?v_294 ?v_84)) (?v_320 (= ?v_294 ?v_94)) (?v_321 (= ?v_294 ?v_95)) (?v_298 (ite ?v_295 ?v_296 ?v_283))) (let ((?v_297 (<= ?v_298 ?v_99)) (?v_299 (<= 9 (+ ?v_298 0))) (?v_308 (ite ?v_279 0 (ite ?v_300 ?v_293 (ite (= ?v_282 ?v_156) 0 (ite (= ?v_282 ?v_157) 0 (ite (= ?v_282 ?v_158) 0 (ite (= ?v_282 ?v_159) 0 i1022)))))))) (let ((?v_329 (ite ?v_295 ?v_308 ?v_301))) (let ((?v_302 (= ?v_329 ?v_181)) (?v_331 (= ?v_294 ?v_102)) (?v_305 (ite ?v_303 ?v_296 ?v_290))) (let ((?v_304 (<= ?v_305 ?v_99)) (?v_306 (<= 9 (+ ?v_305 0))) (?v_336 (ite (not ?v_303) ?v_307 ?v_308))) (let ((?v_312 (ite ?v_309 14 (ite ?v_313 62 (ite ?v_314 62 (ite ?v_317 97 (ite ?v_320 93 (ite ?v_321 93 (ite (= ?v_294 ?v_96) (ite (not ?v_297) 98 (ite ?v_297 95 ?v_294)) (ite (= ?v_294 ?v_122) 95 (ite (= ?v_294 ?v_71) (ite (not ?v_299) 96 (ite ?v_299 76 ?v_294)) (ite (= ?v_294 ?v_87) 76 (ite (= ?v_294 ?v_88) (ite (not ?v_302) 77 (ite ?v_302 82 ?v_294)) (ite ?v_331 101 (ite (= ?v_294 ?v_103) 74 (ite (= ?v_294 ?v_125) (ite (not ?v_304) 102 (ite ?v_304 99 ?v_294)) (ite (= ?v_294 ?v_165) 99 (ite (= ?v_294 ?v_166) (ite (not ?v_306) 100 (ite ?v_306 79 ?v_294)) (ite (= ?v_294 ?v_184) 79 (ite (not (= ?v_294 ?v_185)) ?v_294 (ite (= ?v_336 ?v_157) 82 ?v_294)))))))))))))))))))) (?v_311 (= (ite (not ?v_309) ?v_310 i1154) ?v_3)) (?v_316 (<= (ite ?v_313 i1154 (ite (not ?v_314) ?v_315 i1154)) ?v_3)) (?v_328 (not ?v_318))) (let ((?v_332 (ite ?v_328 ?v_296 (+ 0 1 ?v_296)))) (let ((?v_326 (ite ?v_317 ?v_332 ?v_298))) (let ((?v_319 (<= ?v_326 ?v_99)) (?v_322 (not ?v_321))) (let ((?v_325 (<= (ite ?v_320 i1154 (ite ?v_322 ?v_152 i1154)) (+ (ite ?v_320 ?v_324 (ite ?v_322 ?v_323 ?v_324)) 0))) (?v_327 (<= 9 (+ ?v_326 0))) (?v_337 (ite ?v_328 ?v_308 (ite (= ?v_296 ?v_156) 0 (ite (= ?v_296 ?v_157) 0 (ite (= ?v_296 ?v_158) 0 (ite (= ?v_296 ?v_159) 0 i1091))))))) (let ((?v_330 (= (ite ?v_317 ?v_337 ?v_329) ?v_181)) (?v_334 (ite ?v_331 ?v_332 ?v_305))) (let ((?v_333 (<= ?v_334 ?v_99)) (?v_335 (<= 9 (+ ?v_334 0)))) (and (and (and true (not ?v_73)) (not ?v_148)) (= (ite (= ?v_312 ?v_49) (ite (not ?v_311) 15 (ite ?v_311 16 ?v_312)) (ite (= ?v_312 ?v_54) (ite (not ?v_316) 63 (ite ?v_316 69 ?v_312)) (ite (= ?v_312 ?v_84) 97 (ite (= ?v_312 ?v_96) (ite (not ?v_319) 98 (ite ?v_319 95 ?v_312)) (ite (= ?v_312 ?v_115) (ite (not ?v_325) 94 (ite ?v_325 91 ?v_312)) (ite (= ?v_312 ?v_122) 95 (ite (= ?v_312 ?v_71) (ite (not ?v_327) 96 (ite ?v_327 76 ?v_312)) (ite (= ?v_312 ?v_87) 76 (ite (= ?v_312 ?v_88) (ite (not ?v_330) 77 (ite ?v_330 82 ?v_312)) (ite (= ?v_312 ?v_102) 101 (ite (= ?v_312 ?v_103) 74 (ite (= ?v_312 ?v_125) (ite (not ?v_333) 102 (ite ?v_333 99 ?v_312)) (ite (= ?v_312 ?v_165) 99 (ite (= ?v_312 ?v_166) (ite (not ?v_335) 100 (ite ?v_335 79 ?v_312)) (ite (= ?v_312 ?v_184) 79 (ite (not (= ?v_312 ?v_185)) ?v_312 (ite (= (ite (not ?v_331) ?v_336 ?v_337) ?v_157) 82 ?v_312))))))))))))))))) ?v_132))))))))))))))))))))))))))))))))))))))))))))))))))))))))))))))))))))))))))))))))))))))))))))))))))))))))))))))))))))))))))))))))))))))))
(check-sat)
(exit)
